W=6;
H=7;

MAX_TIME=32;
MAX_TRACKS=23;

TARGET=(4,6);

TRAINS=[(2,4,RIGHT),(4,4,LEFT),(6,4,RIGHT)];

INIT_POS=[
(2,1,STRAIGHT_TD),
(2,4,STRAIGHT_RL),
(4,4,STRAIGHT_RL),
(4,6,STRAIGHT_RL),
(6,1,STRAIGHT_TD),
(6,4,STRAIGHT_RL),
];
TUNNEL_PAIRS=[];

GATES=[];
ACTIVATIONS=[];

DSWITCHES=[];

STATIONS=[
  (2,1,3),
  (6,1,1),
];
